instances/shortest_path/discrete_knapsack_uncertainty/nohadani_3_9.mps
* Signature: 0xf9a0f44b955a6a9b
NAME nohadani_3_9
ROWS
 N  OBJ
 E  flow_cons_inner_nodes[2]
 E  flow_cons_source
 E  flow_cons_target
 L  primal_lower
 L  mccormick1[0,1]
 L  mccormick1[0,2]
 L  mccormick1[1,0]
 L  mccormick1[1,2]
 L  mccormick1[2,0]
 L  mccormick1[2,1]
 L  mccormick2[0,1]
 L  mccormick2[0,2]
 L  mccormick2[1,0]
 L  mccormick2[1,2]
 L  mccormick2[2,0]
 L  mccormick2[2,1]
 G  mccormick3[0,1]
 G  mccormick3[0,2]
 G  mccormick3[1,0]
 G  mccormick3[1,2]
 G  mccormick3[2,0]
 G  mccormick3[2,1]
COLUMNS
    MARKER    'MARKER'                 'INTORG'
    y[0,1]    OBJ       6.1188234163113421e+01
    y[0,1]    flow_cons_source  1
    y[0,1]    flow_cons_target  1
    y[0,1]    mccormick2[0,1]  -1
    y[0,1]    mccormick3[0,1]  -1
    y[0,2]    OBJ       1.8027756377319946e+01
    y[0,2]    flow_cons_inner_nodes[2]  1
    y[0,2]    flow_cons_source  1
    y[0,2]    mccormick2[0,2]  -1
    y[0,2]    mccormick3[0,2]  -1
    y[1,0]    OBJ       6.1188234163113421e+01
    y[1,0]    flow_cons_source  -1
    y[1,0]    flow_cons_target  -1
    y[1,0]    mccormick2[1,0]  -1
    y[1,0]    mccormick3[1,0]  -1
    y[1,2]    OBJ       4.3416586692184822e+01
    y[1,2]    flow_cons_inner_nodes[2]  1
    y[1,2]    flow_cons_target  -1
    y[1,2]    mccormick2[1,2]  -1
    y[1,2]    mccormick3[1,2]  -1
    y[2,0]    OBJ       1.8027756377319946e+01
    y[2,0]    flow_cons_inner_nodes[2]  -1
    y[2,0]    flow_cons_source  -1
    y[2,0]    mccormick2[2,0]  -1
    y[2,0]    mccormick3[2,0]  -1
    y[2,1]    OBJ       4.3416586692184822e+01
    y[2,1]    flow_cons_inner_nodes[2]  -1
    y[2,1]    flow_cons_target  1
    y[2,1]    mccormick2[2,1]  -1
    y[2,1]    mccormick3[2,1]  -1
    x[0,1]    OBJ       1
    x[0,1]    primal_lower  9.3688381109601231e+00
    x[0,2]    OBJ       1
    x[0,2]    primal_lower  5.6097461115028677e+00
    x[1,0]    OBJ       1
    x[1,0]    primal_lower  2.7313074129954718e+00
    x[1,2]    OBJ       1
    x[1,2]    primal_lower  6.0977803477580235e+00
    x[2,0]    OBJ       1
    x[2,0]    primal_lower  1.2432739987011361e+00
    x[2,1]    OBJ       1
    x[2,1]    primal_lower  2.5549862718182297e+00
    u[0,1]    primal_lower  27
    u[0,1]    mccormick1[0,1]  -1
    u[0,1]    mccormick3[0,1]  -1
    u[0,2]    primal_lower  47
    u[0,2]    mccormick1[0,2]  -1
    u[0,2]    mccormick3[0,2]  -1
    u[1,0]    primal_lower  81
    u[1,0]    mccormick1[1,0]  -1
    u[1,0]    mccormick3[1,0]  -1
    u[1,2]    primal_lower  42
    u[1,2]    mccormick1[1,2]  -1
    u[1,2]    mccormick3[1,2]  -1
    u[2,0]    primal_lower  15
    u[2,0]    mccormick1[2,0]  -1
    u[2,0]    mccormick3[2,0]  -1
    u[2,1]    primal_lower  73
    u[2,1]    mccormick1[2,1]  -1
    u[2,1]    mccormick3[2,1]  -1
    r[0,1]    OBJ       6.1188234163113426e+00
    r[0,1]    mccormick1[0,1]  1
    r[0,1]    mccormick2[0,1]  1
    r[0,1]    mccormick3[0,1]  1
    r[0,2]    OBJ       1.8027756377319948e+00
    r[0,2]    mccormick1[0,2]  1
    r[0,2]    mccormick2[0,2]  1
    r[0,2]    mccormick3[0,2]  1
    r[1,0]    OBJ       6.1188234163113426e+00
    r[1,0]    mccormick1[1,0]  1
    r[1,0]    mccormick2[1,0]  1
    r[1,0]    mccormick3[1,0]  1
    r[1,2]    OBJ       4.3416586692184822e+00
    r[1,2]    mccormick1[1,2]  1
    r[1,2]    mccormick2[1,2]  1
    r[1,2]    mccormick3[1,2]  1
    r[2,0]    OBJ       1.8027756377319948e+00
    r[2,0]    mccormick1[2,0]  1
    r[2,0]    mccormick2[2,0]  1
    r[2,0]    mccormick3[2,0]  1
    r[2,1]    OBJ       4.3416586692184822e+00
    r[2,1]    mccormick1[2,1]  1
    r[2,1]    mccormick2[2,1]  1
    r[2,1]    mccormick3[2,1]  1
    MARKER    'MARKER'                 'INTEND'
RHS
    RHS1      flow_cons_source  1
    RHS1      flow_cons_target  1
    RHS1      primal_lower  81
    RHS1      mccormick3[0,1]  -1
    RHS1      mccormick3[0,2]  -1
    RHS1      mccormick3[1,0]  -1
    RHS1      mccormick3[1,2]  -1
    RHS1      mccormick3[2,0]  -1
    RHS1      mccormick3[2,1]  -1
BOUNDS
 BV BND1      y[0,1]  
 BV BND1      y[0,2]  
 BV BND1      y[1,0]  
 BV BND1      y[1,2]  
 BV BND1      y[2,0]  
 BV BND1      y[2,1]  
 BV BND1      x[0,1]  
 BV BND1      x[0,2]  
 BV BND1      x[1,0]  
 BV BND1      x[1,2]  
 BV BND1      x[2,0]  
 BV BND1      x[2,1]  
 BV BND1      u[0,1]  
 BV BND1      u[0,2]  
 BV BND1      u[1,0]  
 BV BND1      u[1,2]  
 BV BND1      u[2,0]  
 BV BND1      u[2,1]  
 BV BND1      r[0,1]  
 BV BND1      r[0,2]  
 BV BND1      r[1,0]  
 BV BND1      r[1,2]  
 BV BND1      r[2,0]  
 BV BND1      r[2,1]  
ENDATA
